************************************************************************
file with basedata            : j9018_.bas
initial value random generator: 2131989126
************************************************************************
projects                      :  1
jobs (incl. supersource/sink ):  92
horizon                       :  506
RESOURCES
  - renewable                 :  4   R
  - nonrenewable              :  0   N
  - doubly constrained        :  0   D
************************************************************************
PROJECT INFORMATION:
pronr.  #jobs rel.date duedate tardcost  MPM-Time
    1     90      0       90       42       90
************************************************************************
PRECEDENCE RELATIONS:
jobnr.    #modes  #successors   successors
   1        1          3           2   3   4
   2        1          1          68
   3        1          3           5   9  36
   4        1          2          15  48
   5        1          3           6   7   8
   6        1          3          12  14  20
   7        1          3          24  37  41
   8        1          3          13  18  23
   9        1          3          10  11  16
  10        1          1          37
  11        1          2          25  71
  12        1          3          29  45  90
  13        1          3          15  28  65
  14        1          2          50  76
  15        1          3          17  21  38
  16        1          3          19  27  40
  17        1          1          49
  18        1          2          33  59
  19        1          3          32  35  57
  20        1          2          39  77
  21        1          3          22  31  66
  22        1          1          30
  23        1          3          39  52  70
  24        1          1          52
  25        1          3          26  55  60
  26        1          1          54
  27        1          3          39  72  76
  28        1          2          42  59
  29        1          1          80
  30        1          2          54  62
  31        1          2          34  75
  32        1          2          70  79
  33        1          2          69  84
  34        1          1          44
  35        1          3          53  62  65
  36        1          3          41  51  62
  37        1          2          63  87
  38        1          2          47  61
  39        1          2          42  64
  40        1          1          43
  41        1          1          61
  42        1          2          61  82
  43        1          2          59  78
  44        1          3          46  53  67
  45        1          1          74
  46        1          2          72  83
  47        1          2          63  81
  48        1          3          56  73  77
  49        1          2          54  69
  50        1          3          65  69  81
  51        1          3          56  58  66
  52        1          2          55  66
  53        1          1          83
  54        1          3          58  72  85
  55        1          2          82  83
  56        1          2          75  84
  57        1          1          79
  58        1          1          63
  59        1          2          67  68
  60        1          1          67
  61        1          1          80
  62        1          2          75  79
  63        1          1          64
  64        1          2          73  78
  65        1          1          73
  66        1          2          71  91
  67        1          1          70
  68        1          1          85
  69        1          1          88
  70        1          2          74  88
  71        1          1          76
  72        1          1          77
  73        1          1          89
  74        1          1          85
  75        1          1          82
  76        1          1          89
  77        1          2          78  81
  78        1          1          88
  79        1          2          80  87
  80        1          1          86
  81        1          1          84
  82        1          1          87
  83        1          1          90
  84        1          2          86  89
  85        1          1          86
  86        1          1          91
  87        1          1          90
  88        1          1          91
  89        1          1          92
  90        1          1          92
  91        1          1          92
  92        1          0        
************************************************************************
REQUESTS/DURATIONS:
jobnr. mode duration  R 1  R 2  R 3  R 4
------------------------------------------------------------------------
  1      1     0       0    0    0    0
  2      1     4       0    4    0    0
  3      1     3       0    0    1    0
  4      1     2       0    0    4    0
  5      1     8       9    0    0    0
  6      1     3       0    0    6    0
  7      1     3       0    2    0    0
  8      1     6       0    0   10    0
  9      1     8       0    0    0    7
 10      1     2       0    0    0    3
 11      1    10       0    0    0    7
 12      1    10       0    0    0    2
 13      1     7       0    0    9    0
 14      1     5       0    9    0    0
 15      1     1       0    0    0    5
 16      1     9       0    0    0    9
 17      1     9       0    0    0    7
 18      1     3       2    0    0    0
 19      1    10       0    0    2    0
 20      1     2       0    0    8    0
 21      1     1       0    0    0   10
 22      1     9       0    0    0    1
 23      1     4       0    0    0    3
 24      1     2       0    3    0    0
 25      1     2       0    1    0    0
 26      1     7       0    0    1    0
 27      1     9       0   10    0    0
 28      1     8       0    0    7    0
 29      1     5       3    0    0    0
 30      1     4       9    0    0    0
 31      1     9       0    0    0    7
 32      1     3       0    0    0   10
 33      1     5       0    1    0    0
 34      1     5       0    0    2    0
 35      1     5       0    0    0    4
 36      1     5       0    0    0    6
 37      1     7       0    0    0    1
 38      1     5       0    0    0   10
 39      1     6       1    0    0    0
 40      1     9       0    0    0    2
 41      1     3       0    0    0    6
 42      1     6       0    0    0    9
 43      1     2       9    0    0    0
 44      1    10       0    5    0    0
 45      1     9       0    0    3    0
 46      1    10       0   10    0    0
 47      1     8       0    2    0    0
 48      1     5       0    0    6    0
 49      1     6      10    0    0    0
 50      1     7       0    0    1    0
 51      1     6       0   10    0    0
 52      1    10       0    5    0    0
 53      1     4       0    1    0    0
 54      1     9       0    1    0    0
 55      1     4       0    0    2    0
 56      1     6       0   10    0    0
 57      1     2       0    0    0    5
 58      1     1       0    2    0    0
 59      1     2       0    9    0    0
 60      1     4       0    0    1    0
 61      1     5       0    0    0    3
 62      1    10       0    0    0    8
 63      1    10      10    0    0    0
 64      1    10       0    0    0    5
 65      1     8      10    0    0    0
 66      1     7       0    0    0    7
 67      1     8       0    0    2    0
 68      1     2       0    0    2    0
 69      1     9      10    0    0    0
 70      1     6       0    0    6    0
 71      1     9       0    0    0    3
 72      1     6       0    0    0   10
 73      1     1       0    0    0    6
 74      1     2       0    2    0    0
 75      1     9       2    0    0    0
 76      1     9       6    0    0    0
 77      1     3       0    3    0    0
 78      1     7       1    0    0    0
 79      1     5       0    8    0    0
 80      1     5       5    0    0    0
 81      1     1       0   10    0    0
 82      1     2       0    9    0    0
 83      1     1       2    0    0    0
 84      1     8       0   10    0    0
 85      1     2       0    8    0    0
 86      1     8       0    0    7    0
 87      1     1       0    0    5    0
 88      1     8       0    0    0    1
 89      1     6       4    0    0    0
 90      1     5       0    5    0    0
 91      1     4       1    0    0    0
 92      1     0       0    0    0    0
************************************************************************
RESOURCEAVAILABILITIES:
  R 1  R 2  R 3  R 4
   20   16   14   26
************************************************************************
